Mn1 Co2 Si1
1.0
0.000000 2.814722 2.814722
2.814722 0.000000 2.814722
2.814722 2.814722 0.000000
Mn Co Si
1 2 1
direct
0.000000 0.000000 0.000000 Mn
0.250000 0.250000 0.250000 Co
0.750000 0.750000 0.750000 Co
0.500000 0.500000 0.500000 Si
