Begin Projections
Mn:d;p;s
Co:d;p;s
Si:p;s
End Projections
num_wann =62
num_iter = 300
write_xyz = true
write_hr = true
bands_plot = true
bands_num_points = 30
begin kpoint_path
G 0.0 0.0 0.0	X 0.5 0.0 0.5
X 0.5 0.0 0.5	W 0.5 0.25 0.75
W 0.5 0.25 0.75	K 0.375 0.375 0.75
K 0.375 0.375 0.75	G 0.0 0.0 0.0
G 0.0 0.0 0.0	L 0.5 0.5 0.5
L 0.5 0.5 0.5	U 0.625 0.25 0.625
U 0.625 0.25 0.625	W 0.5 0.25 0.75
W 0.5 0.25 0.75	L 0.5 0.5 0.5
L 0.5 0.5 0.5	K 0.375 0.375 0.75
U 0.625 0.25 0.625	X 0.5 0.0 0.5
end kpoint_path